outputs/case_135.model.txt
capital_adequacy_ratio = 4333/100
risk_to_insured_rights = False
net_worth_ratio_prev = 11/5
profit_loss_deteriorating = False
net_worth_ratio = 11/5
net_worth_deteriorating = False
net_worth = 11/5
improvement_plan_approved = False
cannot_pay_debt = False
capital_improvement_plan_not_submitted = True
improvement_plan_not_effective = False
cannot_fulfill_contract = False
improvement_plan_failed = False
improvement_plan_submitted = False
improvement_plan_completed_within_deadline = False
internal_control_system_established = True
internal_control_system_executed = True
internal_handling_system_established = True
internal_handling_system_executed = True
capital_insufficient = False
internal_handling_established = True
financial_or_business_deterioration = False
capital_significantly_insufficient = False
capital_adequate = False
internal_handling_ok = True
capital_severely_insufficient = True
capital_level = 4
capital_improvement_plan_submitted = False
internal_control_executed = True
improvement_plan_submitted_and_approved = False
penalty = False
internal_control_ok = True
internal_handling_executed = True
internal_control_established = True
supervisory_measures_required = True